db/data/237542725717259162706358108452721621019.z3.out
-------------------
2500.177718197
